35
3 0 10
4 2 12
5 1 7
5 3 7
6 1 1
6 2 4
6 5 9
7 0 9
7 1 10
7 4 4
7 6 1
8 3 8
8 5 11
9 0 4
9 3 2
9 4 8
9 5 9
9 6 10
10 1 8
10 2 7
10 3 1
10 6 7
10 8 2
10 9 3
11 4 3
11 5 8
11 6 1
11 9 6
12 0 11
12 1 9
12 4 6
12 8 12
12 9 4
12 10 11
12 11 10
13 3 4
13 5 3
13 9 3
14 0 8
14 1 10
14 2 12
14 3 5
14 4 5
14 5 5
14 6 1
14 7 2
14 11 12
14 12 9
15 0 10
15 1 10
15 3 6
15 5 4
15 6 9
15 8 12
15 10 5
15 11 4
15 12 2
15 13 10
16 0 4
16 6 8
16 7 6
16 8 6
16 12 6
16 14 5
17 6 1
17 8 10
17 9 6
17 10 12
17 14 10
18 1 4
18 2 6
18 3 6
18 5 2
18 7 8
18 8 5
18 11 1
18 12 8
19 0 12
19 1 4
19 6 11
19 8 3
19 9 3
19 10 8
19 12 7
19 15 12
20 0 9
20 1 7
20 2 9
20 5 9
20 6 8
20 7 10
20 8 6
20 9 12
20 10 7
20 12 7
20 13 1
20 14 12
20 15 6
20 18 1
20 19 10
21 1 12
21 2 11
21 3 8
21 6 6
21 9 11
21 10 11
21 11 2
21 13 3
21 14 2
21 15 3
21 17 3
21 18 2
21 19 10
22 0 12
22 2 10
22 3 2
22 4 5
22 5 5
22 6 2
22 8 8
22 9 12
22 10 8
22 11 6
22 13 7
22 15 12
22 17 3
22 18 10
22 19 10
22 20 4
23 2 10
23 5 12
23 6 5
23 9 5
23 10 7
23 11 6
23 20 3
23 21 4
24 0 11
24 3 3
24 6 9
24 8 11
24 9 10
24 16 2
24 19 3
24 22 4
24 23 9
25 0 9
25 1 3
25 4 8
25 7 4
25 8 11
25 13 12
25 14 8
25 15 3
25 16 9
25 17 7
25 19 8
25 20 11
25 21 10
25 23 11
26 2 9
26 5 2
26 8 4
26 14 4
26 15 6
26 16 7
26 17 3
26 19 2
26 20 12
26 21 11
26 25 6
27 0 1
27 1 5
27 4 3
27 5 6
27 8 10
27 9 2
27 11 1
27 16 10
27 17 1
27 19 10
27 21 7
27 23 3
27 24 3
27 25 3
28 1 5
28 2 6
28 7 8
28 9 1
28 11 1
28 12 5
28 13 9
28 14 6
28 15 11
28 17 9
28 18 6
28 19 11
28 20 6
28 22 3
28 23 3
28 25 7
28 26 9
29 2 3
29 3 10
29 4 3
29 6 4
29 7 9
29 10 2
29 12 5
29 14 3
29 15 2
29 17 10
29 20 3
29 21 12
29 27 10
29 28 6
30 0 5
30 1 3
30 2 9
30 3 3
30 6 9
30 8 7
30 9 8
30 11 1
30 14 2
30 18 8
30 21 6
30 23 9
30 24 6
30 28 5
30 29 2
31 2 1
31 3 11
31 4 9
31 6 12
31 8 7
31 12 5
31 15 3
31 16 4
31 17 4
31 19 1
31 20 8
31 22 4
31 25 4
32 0 3
32 1 12
32 2 7
32 5 4
32 6 2
32 7 1
32 8 8
32 9 3
32 11 5
32 12 10
32 13 4
32 14 8
32 17 12
32 22 4
32 25 1
32 26 10
32 28 11
32 29 9
33 0 6
33 2 11
33 3 3
33 5 7
33 7 3
33 11 10
33 13 3
33 14 9
33 15 7
33 17 10
33 18 10
33 19 6
33 20 3
33 21 3
33 25 4
33 28 10
33 31 7
33 32 12
34 0 8
34 1 2
34 3 8
34 6 10
34 8 3
34 9 4
34 14 1
34 15 11
34 17 9
34 19 1
34 21 6
34 22 10
34 23 1
34 24 9
34 26 9
34 27 1
34 30 7
34 31 8
